NAME : A-n9-k3
COMMENT : (moj test primer, Min no of trucks: 3, Optimal value: 105)
TYPE : CVRP
DIMENSION : 9
EDGE_WEIGHT_TYPE : EUC_2D 
CAPACITY : 10
NODE_COORD_SECTION 
 1 0 0
 2 -7 6
 3 -10 2
 4 -15 8
 5 -10 10
 6 10 -5
 7 8 -7
 8 11 -6
 9 15 15
DEMAND_SECTION 
1 0 
2 1
3 3 
4 2 
5 3
6 4 
7 4 
8 2
9 10 
DEPOT_SECTION 
 1  
 -1  
EOF 
